Version identifier: 12.10.0.0 | 2019-11-26 | 843d4de
CPXPARAM_WorkMem                                 28672
Tried aggregator 2 times.
MIP Presolve modified 75 coefficients.
Aggregator did 45 substitutions.
Reduced MIP has 245 rows, 300 columns, and 1155 nonzeros.
Reduced MIP has 300 binaries, 0 generals, 0 SOSs, and 0 indicators.
Presolve time = 0,00 sec. (1,50 ticks)
Found incumbent of value 1342,000000 after 0,01 sec. (2,72 ticks)
Probing time = 0,00 sec. (0,45 ticks)
Tried aggregator 1 time.
Detecting symmetries...
MIP Presolve eliminated 50 rows and 0 columns.
MIP Presolve added 100 rows and 0 columns.
Reduced MIP has 295 rows, 300 columns, and 1205 nonzeros.
Reduced MIP has 300 binaries, 0 generals, 0 SOSs, and 0 indicators.
Presolve time = 0,00 sec. (1,51 ticks)
Probing time = 0,00 sec. (0,44 ticks)
Clique table members: 800.
MIP emphasis: balance optimality and feasibility.
MIP search method: dynamic search.
Parallel mode: deterministic, using up to 16 threads.
Root relaxation solution time = 0,00 sec. (1,77 ticks)

        Nodes                                         Cuts/
   Node  Left     Objective  IInf  Best Integer    Best Bound    ItCnt     Gap

*     0+    0                         1342,0000        0,0000           100,00%
*     0+    0                          678,0000        0,0000           100,00%
      0     0      288,6333   231      678,0000      288,6333      150   57,43%
      0     0      289,6293   231      678,0000     Cuts: 128      245   57,28%
      0     0      299,5095   231      678,0000     Cuts: 173      325   55,82%
      0     0      308,0893   231      678,0000     Cuts: 173      415   54,56%
      0     0      315,6114   231      678,0000     Cuts: 160      535   53,45%
      0     0      320,4457   231      678,0000     Cuts: 164      610   52,74%
      0     0      351,0793   231      678,0000     Cuts: 173      805   48,22%
      0     0      356,4345   231      678,0000     Cuts: 101      912   47,43%
      0     0      357,4480   231      678,0000      Cuts: 20      959   47,28%
      0     0      358,1180   231      678,0000      Cuts: 60     1020   47,18%
*     0+    0                          617,0000      358,1180            41,96%
      0     0      359,0952   231      617,0000      Cuts: 19     1073   41,80%
      0     0      360,0411   231      617,0000     Cuts: 109     1127   41,65%
      0     0      360,7328   231      617,0000      Cuts: 32     1198   41,53%
      0     0      361,4271   231      617,0000      Cuts: 94     1239   41,42%
      0     0      361,9420   231      617,0000      Cuts: 55     1296   41,34%
      0     0      363,1442   231      617,0000      Cuts: 85     1353   41,14%
      0     0      363,7275   231      617,0000      Cuts: 17     1398   41,05%
      0     0      364,1385   231      617,0000      Cuts: 88     1431   40,98%
      0     0      364,5582   231      617,0000   ZeroHalf: 5     1450   40,91%
      0     0      364,6540   231      617,0000   ZeroHalf: 3     1469   40,90%
      0     0      364,6568   231      617,0000   Flowcuts: 1     1476   40,90%
      0     0      364,7281   231      617,0000   ZeroHalf: 1     1499   40,89%
      0     2      364,7281   283      617,0000      364,7281     1499   40,89%
Elapsed time = 0,46 sec. (239,98 ticks, tree = 0,02 MB, solutions = 3)

GUB cover cuts applied:  38
Clique cuts applied:  50
Cover cuts applied:  293
Flow cuts applied:  6
Mixed integer rounding cuts applied:  141
Zero-half cuts applied:  46
Lift and project cuts applied:  1
Gomory fractional cuts applied:  5

Root node processing (before b&c):
  Real time             =    0,46 sec. (239,65 ticks)
Parallel b&c, 16 threads:
  Real time             =    0,36 sec. (236,89 ticks)
  Sync time (average)   =    0,13 sec.
  Wait time (average)   =    0,00 sec.
                          ------------
Total (root+branch&cut) =    0,82 sec. (476,55 ticks)
